(set-logic HORN)
(declare-fun state (Int Int Int Int Int Int Int Int Int Int (Array Int Int) (Array Int Int) (Array Int Int) Bool Int) Bool)
(assert (forall ((|B_1| Int) (|J_1| Int) (|H_1| Int) (|E_1| Int) (|A_1| Int) (|F_1| Int) (|G_1| Int) (|v_13| Int) (|I_1| Int) (|C_1| Int) (|K_1| (Array Int Int)) (|L_1| (Array Int Int)) (|M_1| (Array Int Int)) (|.loc.15| Bool) (|A_2| Int) (|.loc.29| Bool) (|.y.28| (Array Int Int)) (|.y.27| (Array Int Int)) (|.y.26| (Array Int Int)) (|.y.25| Int) (|.y.24| Int) (|.y.22| Int) (|.y.21| Int) (|.y.20| Int) (|.y.19| Int) (|.y.17| Int) (|.y.16| Int) (|.y.23| Int) (|.y.18| Int) (|.xtv.1| Int)) (=> (and (and (and (and (and (and (and (and (and (= (+ C_1 (* (- 1) (select L_1 C_1))) (- 1028)) (not (<= A_1 0))) (not (<= C_1 0))) (= H_1 G_1)) (= A_1 (select K_1 A_1))) (= C_1 (select K_1 C_1))) (= G_1 v_13)) (= (+ A_1 (* (- 1) (select L_1 A_1))) (- 1024))) (= G_1 0)) (not .loc.15)) (state |B_1| |J_1| |H_1| |E_1| |A_1| |F_1| |G_1| |v_13| |I_1| |C_1| |K_1| |L_1| |M_1| |.loc.15| |A_2|))))
(assert (forall ((|B_1| Int) (|J_1| Int) (|H_1| Int) (|E_1| Int) (|A_1| Int) (|F_1| Int) (|G_1| Int) (|v_13| Int) (|I_1| Int) (|C_1| Int) (|K_1| (Array Int Int)) (|L_1| (Array Int Int)) (|M_1| (Array Int Int)) (|.loc.15| Bool) (|A_2| Int) (|.loc.29| Bool) (|.y.28| (Array Int Int)) (|.y.27| (Array Int Int)) (|.y.26| (Array Int Int)) (|.y.25| Int) (|.y.24| Int) (|.y.22| Int) (|.y.21| Int) (|.y.20| Int) (|.y.19| Int) (|.y.17| Int) (|.y.16| Int) (|.y.23| Int) (|.y.18| Int) (|.xtv.1| Int)) (=> (and (state |B_1| |J_1| |H_1| |E_1| |A_1| |F_1| |G_1| |v_13| |I_1| |C_1| |K_1| |L_1| |M_1| |.loc.15| |A_2|) (let ((.def_25 (select L_1 C_1))) (let ((.def_42 (select K_1 A_1))) (let ((.def_45 (select K_1 C_1))) (let ((.def_50 (select L_1 A_1))) (let ((.def_76 (<= 0 H_1))) (let ((.def_81 (* 4 H_1))) (let ((.def_88 (select K_1 A_2))) (let ((.def_91 (select K_1 (+ .def_81 A_1)))) (let ((.def_93 (select L_1 A_2))) (let ((.def_94 (select L_1 (+ .def_81 A_1)))) (let ((.def_96 (select M_1 A_2))) (let ((.def_97 (select M_1 (+ .def_81 A_1)))) (let ((.def_100 (= .def_50 .def_94))) (let ((.def_103 (= .def_42 .def_91))) (let ((.def_109 (= .def_97 (select M_1 A_1)))) (let ((.def_114 (or (not (<= .def_88 A_2)) (<= .def_93 A_2)))) (let ((.def_117 (not (= .def_96 1)))) (let ((.def_120 (<= (- 1) H_1))) (let ((.def_124 (and .def_109 (and .def_103 (and .def_76 .def_100))))) (let ((.def_138 (select K_1 (+ (+ .def_81 C_1) 4)))) (let ((.def_140 (select L_1 (+ (+ .def_81 C_1) 4)))) (let ((.def_142 (select M_1 (+ (+ .def_81 C_1) 4)))) (let ((.def_148 (= .def_25 .def_140))) (let ((.def_151 (= .def_45 .def_138))) (let ((.def_157 (= .def_142 (select M_1 C_1)))) (and (and (not .loc.15) (and (not (= (ite (<= 256 H_1) 0 1) 0)) (and (= (+ C_1 (* (- 1) .def_25)) (- 1028)) (and (not (<= A_1 0)) (and (not (<= C_1 0)) (and (= A_1 .def_42) (and (= C_1 .def_45) (and (= G_1 0) (and (= (+ A_1 (* (- 1) .def_50)) (- 1024)) (= H_1 v_13)))))))))) (or (and (or (or (or (not .def_76) (and (and (and (and (<= (+ .def_81 (+ A_1 (* (- 1) A_2))) 0) (and (not (<= (+ .def_81 (+ A_1 (* (- 1) A_2))) (- 4))) (and (= .def_88 .def_91) (and (and (= .def_93 .def_94) (and (and .def_76 (= .def_96 .def_97)) .def_100)) .def_103)))) .def_109) .def_114) .def_117)) (and (not .def_120) .def_124)) (and (and (<= (+ .def_81 (+ C_1 (* (- 1) A_2))) (- 4)) (and (not (<= (+ .def_81 (+ C_1 (* (- 1) A_2))) (- 8))) (and (= .def_88 .def_138) (and (and (= .def_93 .def_140) (and (and (= .def_96 .def_142) (and .def_120 (and .def_117 (and .def_114 .def_124)))) .def_148)) .def_151)))) .def_157)) .loc.29) (and (= M_1 .y.28) (and (= L_1 .y.27) (and (= K_1 .y.26) (and (= C_1 .y.25) (and (= I_1 .y.24) (and (= G_1 .y.22) (and (= F_1 .y.21) (and (= A_1 .y.20) (and (= E_1 .y.19) (and (= J_1 .y.17) (and (= B_1 .y.16) (and (= (+ H_1 (* (- 1) .y.23)) (- 1)) (and (= .y.23 .y.18) (and (not .loc.29) (and .def_157 (and .def_151 (and .def_148 (and .def_120 .def_124)))))))))))))))))))))))))))))))))))))))))))))) (state |.y.16| |.y.17| |.y.18| |.y.19| |.y.20| |.y.21| |.y.22| |.y.23| |.y.24| |.y.25| |.y.26| |.y.27| |.y.28| |.loc.29| |.xtv.1|))))
(assert (forall ((|B_1| Int) (|J_1| Int) (|H_1| Int) (|E_1| Int) (|A_1| Int) (|F_1| Int) (|G_1| Int) (|v_13| Int) (|I_1| Int) (|C_1| Int) (|K_1| (Array Int Int)) (|L_1| (Array Int Int)) (|M_1| (Array Int Int)) (|.loc.15| Bool) (|A_2| Int) (|.loc.29| Bool) (|.y.28| (Array Int Int)) (|.y.27| (Array Int Int)) (|.y.26| (Array Int Int)) (|.y.25| Int) (|.y.24| Int) (|.y.22| Int) (|.y.21| Int) (|.y.20| Int) (|.y.19| Int) (|.y.17| Int) (|.y.16| Int) (|.y.23| Int) (|.y.18| Int) (|.xtv.1| Int)) (=> (state |B_1| |J_1| |H_1| |E_1| |A_1| |F_1| |G_1| |v_13| |I_1| |C_1| |K_1| |L_1| |M_1| |.loc.15| |A_2|) (not .loc.15))))
(check-sat)
